
******************************************************************************
This program contains Ipopt, a library for large-scale nonlinear optimization.
 Ipopt is released as open source code under the Eclipse Public License (EPL).
         For more information visit http://projects.coin-or.org/Ipopt

This version of Ipopt was compiled from source code available at
    https://github.com/IDAES/Ipopt as part of the Institute for the Design of
    Advanced Energy Systems Process Systems Engineering Framework (IDAES PSE
    Framework) Copyright (c) 2018-2019. See https://github.com/IDAES/idaes-pse.

This version of Ipopt was compiled using HSL, a collection of Fortran codes
    for large-scale scientific computation.  All technical papers, sales and
    publicity material resulting from use of the HSL codes within IPOPT must
    contain the following acknowledgement:
        HSL, a collection of Fortran codes for large-scale scientific
        computation. See http://www.hsl.rl.ac.uk.
******************************************************************************

This is Ipopt version 3.13.2, running with linear solver ma27.

Number of nonzeros in equality constraint Jacobian...:      808
Number of nonzeros in inequality constraint Jacobian.:        0
Number of nonzeros in Lagrangian Hessian.............:      702

Total number of variables............................:      351
                     variables with only lower bounds:      108
                variables with lower and upper bounds:      189
                     variables with only upper bounds:        0
Total number of equality constraints.................:      350
Total number of inequality constraints...............:        0
        inequality constraints with only lower bounds:        0
   inequality constraints with lower and upper bounds:        0
        inequality constraints with only upper bounds:        0

iter    objective    inf_pr   inf_du lg(mu)  ||d||  lg(rg) alpha_du alpha_pr  ls
   0  0.0000000e+00 4.48e-01 1.11e-16  -1.0 0.00e+00    -  0.00e+00 0.00e+00   0
   1  3.5075565e+00 5.69e-01 3.32e+04  -1.0 2.60e+05    -  5.51e-01 4.41e-01h  1
   2  3.7054910e+00 5.57e-01 3.25e+04  -1.0 1.70e+05    -  7.89e-01 1.95e-02h  1
   3  6.9155736e+00 4.20e-01 2.62e+04  -1.0 2.26e+05    -  7.86e-01 2.41e-01h  1
   4  2.8216554e+01 2.27e-02 3.41e+03  -1.0 1.82e+05    -  8.31e-01 9.90e-01h  1
   5  3.1324216e+01 3.75e-04 1.88e+02  -1.0 1.91e+04    -  9.77e-01 9.90e-01h  1
   6  3.1385337e+01 3.82e-06 6.94e+00  -1.0 3.64e+02    -  9.90e-01 9.90e-01h  1
   7  3.1471717e+01 4.14e-05 1.38e+03  -1.0 1.12e+03    -  9.90e-01 9.90e-01H  1
   8  3.1449530e+01 6.63e-05 5.31e+07  -2.5 1.31e+03    -  9.97e-01 2.17e-01f  3
   9  3.1385013e+01 1.64e-05 3.96e+05  -2.5 8.25e+02    -  1.00e+00 9.97e-01H  1
iter    objective    inf_pr   inf_du lg(mu)  ||d||  lg(rg) alpha_du alpha_pr  ls
  10  3.1384973e+01 4.53e-08 8.68e+07  -2.5 5.09e-01    -  1.00e+00 9.97e-01h  1
  11  3.1384973e+01 1.28e-10 3.07e+10  -2.5 2.17e-04    -  1.00e+00 9.97e-01h  1
In iteration 11, 27 Slacks too small, adjusting variable bounds
  12  3.1384973e+01 2.87e-12 1.09e+13  -2.5 6.12e-07    -  1.00e+00 9.97e-01h  1
  13  3.1384973e+01 2.18e-12 1.05e+00  -2.5 4.53e-07    -  1.00e+00 1.00e+00H  1
  14  3.1384971e+01 1.23e-12 1.09e+13  -9.0 3.67e+01    -  1.00e+00 9.72e-04f 11
  15  3.1384970e+01 2.22e-12 1.09e+13  -9.0 3.65e+01    -  1.00e+00 2.44e-04f 13
  16  3.1382132e+01 1.54e-12 2.26e-03  -9.0 3.65e+01    -  1.00e+00 1.00e+00F  1
  17  3.1382132e+01 3.49e-12 4.66e-10  -9.0 2.82e-05    -  1.00e+00 1.00e+00H  1

Number of Iterations....: 17

                                   (scaled)                 (unscaled)
Objective...............:   3.1382131830606983e+01    3.1382131830606983e+01
Dual infeasibility......:   4.6566128730773926e-10    4.6566128730773926e-10
Constraint violation....:   3.4856562081131415e-12    3.4856562081131415e-12
Complementarity.........:   9.0909090909197027e-10    9.0909090909197027e-10
Overall NLP error.......:   3.4856562081131415e-12    9.0909090909197027e-10


Number of objective function evaluations             = 59
Number of objective gradient evaluations             = 18
Number of equality constraint evaluations            = 59
Number of inequality constraint evaluations          = 0
Number of equality constraint Jacobian evaluations   = 18
Number of inequality constraint Jacobian evaluations = 0
Number of Lagrangian Hessian evaluations             = 17
Total CPU secs in IPOPT (w/o function evaluations)   =      0.038
Total CPU secs in NLP function evaluations           =      0.516

EXIT: Optimal Solution Found.
